Problem:    
Rows:       192
Columns:    65 (48 integer, 48 binary)
Non-zeros:  584
Status:     INTEGER OPTIMAL
Objective:  value = 45.133213 (MINimum)

   No.   Row name        Activity     Lower bound   Upper bound
------ ------------    ------------- ------------- -------------
     1 r.5                   1045.13             0               
     2 r.6                   -986.88      -991.818               
     3 r.7                   45.1332             0               
     4 r.8                   17.8412      -986.185               
     5 r.9                   45.1332             0               
     6 r.10                 -989.403       -994.34               
     7 r.11                  1045.13             0               
     8 r.12                 -982.159      -987.999               
     9 r.13                  1045.13             0               
    10 r.14                 -982.159      -995.278               
    11 r.15                  45.1332             0               
    12 r.16                  17.8412      -989.337               
    13 r.17                  45.1332             0               
    14 r.18                 -998.074      -999.359               
    15 r.19                  1045.13             0               
    16 r.20                 -995.062      -998.674               
    17 r.21                  1045.13             0               
    18 r.22                 -995.062      -996.347               
    19 r.23                  45.1332             0               
    20 r.24                  4.93753      -988.727               
    21 r.25                  1045.13             0               
    22 r.26                 -998.715      -998.715               
    23 r.27                  45.1332             0               
    24 r.28                   1.2847      -997.738               
    25 r.29                  45.1332             0               
    26 r.30                  45.1332      -988.277               
    27 r.31                  1045.13             0               
    28 r.32                 -954.867      -986.431               
    29 r.33                  1045.13             0               
    30 r.34                 -954.867      -972.708               
    31 r.35                  45.1332             0               
    32 r.36                  45.1332      -918.226               
    33 r.37                        1             1             = 
    34 r.38                        1             1             = 
    35 r.39                        1             1             = 
    36 r.40                        1             1             = 
    37 r.41                        1             1             = 
    38 r.42                        1             1             = 
    39 r.43                        1             1             = 
    40 r.44                        1             1             = 
    41 r.45                     1001             2               
    42 r.46                    -1001         -1001               
    43 r.47                  997.478       -994.34               
    44 r.48                     1001             2               
    45 r.49                    -1001         -1001               
    46 r.50                     2000      -987.999               
    47 r.51                        2             2               
    48 r.52                       -2         -1001               
    49 r.53                 -995.278      -995.278               
    50 r.54                     1000             2               
    51 r.55                    -1000         -1001               
    52 r.56                     2000      -989.337               
    53 r.57                   11.194      -991.818               
    54 r.58                  1015.92      -986.185               
    55 r.59                 -991.818      -991.818               
    56 r.60                  12.9037      -986.185               
    57 r.61                 -991.818      -991.818               
    58 r.62                  12.9037      -986.185               
    59 r.63                 -991.818      -991.818               
    60 r.64                  12.9037      -986.185               
    61 r.65                  32.0136      -988.277               
    62 r.66                 -967.986      -986.431               
    63 r.67                   27.292      -988.277               
    64 r.68                 -972.708      -986.431               
    65 r.69                 -967.986      -972.708               
    66 r.70                  32.0136      -918.226               
    67 r.71                 -972.708      -972.708               
    68 r.72                   27.292      -918.226               
    69 r.73                     1001             2               
    70 r.74                    -1001         -1001               
    71 r.75                  3002.52       8.18205               
    72 r.76                     1001             2               
    73 r.77                    -1001         -1001               
    74 r.78                     2000       13.8152               
    75 r.79                     1001             2               
    76 r.80                    -1001         -1001               
    77 r.81                  3007.24      -995.278               
    78 r.82                     1001             2               
    79 r.83                    -1001         -1001               
    80 r.84                     2000      -989.337               
    81 r.85                  8.67182       -994.34               
    82 r.86                  15.9156      -987.999               
    83 r.87                  -994.34       -994.34               
    84 r.88                 -987.096      -987.999               
    85 r.89                     1001             2               
    86 r.90                    -1001         -1001               
    87 r.91                  2994.34      -996.347               
    88 r.92                     1001             2               
    89 r.93                    -1001         -1001               
    90 r.94                   1987.1      -988.727               
    91 r.95                 -990.687       -994.34               
    92 r.96                 -983.444      -987.999               
    93 r.97                 -990.687       -994.34               
    94 r.98                 -983.444      -987.999               
    95 r.99                  1034.54      -988.277               
    96 r.100                 34.5358      -986.431               
    97 r.101                  27.292      -988.277               
    98 r.102                -972.708      -986.431               
    99 r.103                 34.5358      -972.708               
   100 r.104                 1034.54      -918.226               
   101 r.105                -972.708      -972.708               
   102 r.106                  27.292      -918.226               
   103 r.107                       2             2               
   104 r.108                      -2         -1001               
   105 r.109                 995.278       8.18205               
   106 r.110                    1000             2               
   107 r.111                   -1000         -1001               
   108 r.112                    2000       13.8152               
   109 r.113                    1001             2               
   110 r.114                   -1001         -1001               
   111 r.115                 992.756       5.65989               
   112 r.116                    1001             2               
   113 r.117                   -1001         -1001               
   114 r.118                    2000       12.0011               
   115 r.119                    1001             2               
   116 r.120                   -1001         -1001               
   117 r.121                 984.084      -999.359               
   118 r.122                    1001             2               
   119 r.123                   -1001         -1001               
   120 r.124                  1987.1      -998.674               
   121 r.125                       2             2               
   122 r.126                      -2         -1001               
   123 r.127                -12.9037      -996.347               
   124 r.128                    1000             2               
   125 r.129                   -1000         -1001               
   126 r.130                  1987.1      -988.727               
   127 r.131                -983.444      -995.278               
   128 r.132                 16.5565      -989.337               
   129 r.133                -983.444      -995.278               
   130 r.134                 16.5565      -989.337               
   131 r.135                  27.292      -988.277               
   132 r.136                -972.708      -986.431               
   133 r.137                  27.292      -988.277               
   134 r.138                -972.708      -986.431               
   135 r.139                -972.708      -972.708               
   136 r.140                  27.292      -918.226               
   137 r.141                -972.708      -972.708               
   138 r.142                  27.292      -918.226               
   139 r.143                    1001             2               
   140 r.144                   -1001         -1001               
   141 r.145                 3015.92       4.72161               
   142 r.146                    1001             2               
   143 r.147                   -1001         -1001               
   144 r.148                  2012.9       10.6633               
   145 r.149                    1001             2               
   146 r.150                   -1001         -1001               
   147 r.151                 3003.01      -996.347               
   148 r.152                    1001             2               
   149 r.153                   -1001         -1001               
   150 r.154                    2000      -988.727               
   151 r.155                -999.359      -999.359               
   152 r.156                -996.347      -998.674               
   153 r.157                -999.359      -999.359               
   154 r.158                -996.347      -998.674               
   155 r.159                    1001             2               
   156 r.160                   -1001         -1001               
   157 r.161                 1005.66       5.65989               
   158 r.162                    1001             2               
   159 r.163                   -1001         -1001               
   160 r.164                  2012.9       12.0011               
   161 r.165                       2             2               
   162 r.166                      -2         -1001               
   163 r.167                 12.9037       4.72161               
   164 r.168                    1000             2               
   165 r.169                   -1000         -1001               
   166 r.170                  2012.9       10.6633               
   167 r.171                    1001             2               
   168 r.172                   -1001         -1001               
   169 r.173                 996.988        0.6409               
   170 r.174                    1001             2               
   171 r.175                   -1001         -1001               
   172 r.176                    2000       1.32568               
   173 r.177                -996.347      -996.347               
   174 r.178                 3.65283      -988.727               
   175 r.179                -996.347      -996.347               
   176 r.180                 3.65283      -988.727               
   177 r.181                 40.1957      -988.277               
   178 r.182                -959.804      -986.431               
   179 r.183                 40.1957      -988.277               
   180 r.184                -959.804      -986.431               
   181 r.185                    1001             2               
   182 r.186                   -1001         -1001               
   183 r.187                    2000      -972.708               
   184 r.188                    1001             2               
   185 r.189                   -1001         -1001               
   186 r.190                    2000      -918.226               
   187 r.191                    1001             2               
   188 r.192                   -1001         -1001               
   189 r.193                    2000       11.7228               
   190 r.194                    1001             2               
   191 r.195                   -1001         -1001               
   192 r.196                    2000       13.5686               

   No. Column name       Activity     Lower bound   Upper bound
------ ------------    ------------- ------------- -------------
     1 tt                    45.1332             0               
     2 s_1_1        *              1             0             1 
     3 t_1_1                 32.0136             0               
     4 s_1_7        *              0             0             1 
     5 s_1_8        *              1             0             1 
     6 s_2_1        *              0             0             1 
     7 t_2_1                  27.292             0               
     8 s_2_7        *              1             0             1 
     9 s_2_8        *              0             0             1 
    10 s_1_2        *              0             0             1 
    11 t_1_2                 1034.54             0               
    12 s_2_2        *              1             0             1 
    13 t_2_2                  27.292             0               
    14 s_1_3        *              1             0             1 
    15 t_1_3                  27.292             0               
    16 s_2_3        *              0             0             1 
    17 t_2_3                  27.292             0               
    18 s_1_4        *              0             0             1 
    19 t_1_4                 1043.21             0               
    20 s_2_4        *              1             0             1 
    21 t_2_4                 40.1957             0               
    22 s_1_5        *              1             0             1 
    23 t_1_5                 40.1957             0               
    24 s_2_5        *              0             0             1 
    25 t_2_5                 40.1957             0               
    26 s_1_6        *              1             0             1 
    27 t_1_6                 43.8485             0               
    28 s_2_6        *              0             0             1 
    29 t_2_6                 43.8485             0               
    30 t_1_7                       0             0               
    31 t_2_7                       0             0               
    32 t_1_8                       0             0               
    33 t_2_8                       0             0               
    34 r_1_1_2      *              1             0             1 
    35 u_1_1_2      *              0             0             1 
    36 r_2_1_2      *              1             0             1 
    37 u_2_1_2      *              0             0             1 
    38 r_1_1_3      *              0             0             1 
    39 u_1_1_3      *              1             0             1 
    40 r_2_1_3      *              1             0             1 
    41 u_2_1_3      *              0             0             1 
    42 r_1_2_3      *              1             0             1 
    43 u_1_2_3      *              0             0             1 
    44 r_2_2_3      *              1             0             1 
    45 u_2_2_3      *              0             0             1 
    46 r_1_2_5      *              1             0             1 
    47 u_1_2_5      *              0             0             1 
    48 r_2_2_5      *              1             0             1 
    49 u_2_2_5      *              0             0             1 
    50 r_1_3_4      *              1             0             1 
    51 u_1_3_4      *              0             0             1 
    52 r_2_3_4      *              1             0             1 
    53 u_2_3_4      *              0             0             1 
    54 r_1_3_5      *              0             0             1 
    55 u_1_3_5      *              0             0             1 
    56 r_2_3_5      *              1             0             1 
    57 u_2_3_5      *              0             0             1 
    58 r_1_4_5      *              1             0             1 
    59 u_1_4_5      *              0             0             1 
    60 r_2_4_5      *              1             0             1 
    61 u_2_4_5      *              0             0             1 
    62 r_1_7_8      *              1             0             1 
    63 u_1_7_8      *              0             0             1 
    64 r_2_7_8      *              1             0             1 
    65 u_2_7_8      *              0             0             1 

Integer feasibility conditions:

KKT.PE: max.abs.err = 4.55e-13 on row 141
        max.rel.err = 1.09e-16 on row 18
        High quality

KKT.PB: max.abs.err = 2.27e-13 on row 22
        max.rel.err = 2.29e-16 on row 55
        High quality

End of output
